(declare-const c_0 Real)
(declare-const c_1 Real)
(declare-const c_2 Real)
(declare-const c_3 Real)
(declare-const c_4 Real)
(declare-const c_5 Real)
(declare-const c_6 Real)
(declare-const c_7 Real)
(declare-const c_8 Real)
(declare-const c_9 Real)
(declare-const c_10 Real)
(declare-const c_11 Real)
(declare-const c_12 Real)
(declare-const c_13 Real)
(declare-const c_14 Real)
(declare-const c_15 Real)
(declare-const c_16 Real)
(declare-const c_17 Real)
(declare-const c_18 Real)
(declare-const c_19 Real)
(declare-const c_20 Real)
(declare-const c_21 Real)
(declare-const c_22 Real)
(declare-const c_23 Real)
(declare-const c_24 Real)
(declare-const c_25 Real)
(declare-const c_26 Real)
(declare-const c_27 Real)
(declare-const c_28 Real)
(declare-const c_29 Real)
(declare-const s_0 Real)
(declare-const s_1 Real)
(declare-const s_2 Real)
(declare-const s_3 Real)
(declare-const s_4 Real)
(declare-const s_5 Real)
(declare-const s_6 Real)
(declare-const s_7 Real)
(declare-const s_8 Real)
(declare-const s_9 Real)
(declare-const s_10 Real)
(declare-const s_11 Real)
(declare-const s_12 Real)
(declare-const s_13 Real)
(declare-const s_14 Real)
(declare-const s_15 Real)
(declare-const s_16 Real)
(declare-const s_17 Real)
(declare-const s_18 Real)
(declare-const s_19 Real)
(declare-const s_20 Real)
(declare-const s_21 Real)
(declare-const s_22 Real)
(declare-const s_23 Real)
(declare-const s_24 Real)
(declare-const s_25 Real)
(declare-const s_26 Real)
(declare-const s_27 Real)
(declare-const s_28 Real)
(declare-const s_29 Real)
(assert (forall ((r Real) (_NONDET_ Real) (i Real) (j Real) ) (=> (and (>= (+ (* 1024 1) (* 1 r ) ) 0) (>= (+ (* 1023 1) (* (- 1) r ) ) 0) (>= (+ (* 1024 1) (* 1 _NONDET_ ) ) 0) (>= (+ (* 1023 1) (* (- 1) _NONDET_ ) ) 0) (>= (+ (* 1024 1) (* 1 i ) ) 0) (>= (+ (* 1023 1) (* (- 1) i ) ) 0) (>= (+ (* 1024 1) (* 1 j ) ) 0) (>= (+ (* 1023 1) (* (- 1) j ) ) 0) ) (>= (+ (* 1 _NONDET_ i s_2 ) (* 1 _NONDET_ j s_3 ) (* 1 _NONDET_ r s_4 ) (* 1 _NONDET_ s_1 ) (* 1 _NONDET_ _NONDET_ s_5 ) (* 1 i j s_7 ) (* 1 i r s_8 ) (* 1 i s_6 ) (* 1 i i s_9 ) (* 1 j r s_11 ) (* 1 j s_10 ) (* 1 j j s_12 ) (* 1 r s_13 ) (* 1 r r s_14 ) (* 1 s_0 ) ) 0) )))
(assert (forall ((r Real) (_NONDET_ Real) (i Real) (j Real) ) (=> (and (>= (+ (* 1024 1) (* 1 r ) ) 0) (>= (+ (* 1023 1) (* (- 1) r ) ) 0) (>= (+ (* 1024 1) (* 1 _NONDET_ ) ) 0) (>= (+ (* 1023 1) (* (- 1) _NONDET_ ) ) 0) (>= (+ (* 1024 1) (* 1 i ) ) 0) (>= (+ (* 1023 1) (* (- 1) i ) ) 0) (>= (+ (* 1024 1) (* 1 j ) ) 0) (>= (+ (* 1023 1) (* (- 1) j ) ) 0) ) (>= (+ (* 1 _NONDET_ c_1 ) (* 1 _NONDET_ c_2 i ) (* 1 _NONDET_ c_3 j ) (* 1 _NONDET_ c_4 r ) (* 1 _NONDET_ _NONDET_ c_5 ) (* 1 c_0 ) (* 1 c_10 j ) (* 1 c_11 j r ) (* 1 c_12 j j ) (* 1 c_13 r ) (* 1 c_14 r r ) (* 1 c_6 i ) (* 1 c_7 i j ) (* 1 c_8 i r ) (* 1 c_9 i i ) ) 0) )))
(assert (forall ((r Real) (_NONDET_ Real) (i Real) (j Real) ) (=> (and (>= (+ (* (- 1) 1) (* 1 i ) (* (- 1) j ) ) 0) (>= (+ (* 1023 1) (* (- 1) _NONDET_ ) ) 0) (>= (+ (* 3070 1) (* 1 i ) (* (- 1) j ) (* (- 1) r ) ) 0) (>= (+ (* 2095105 1) (* 1 _NONDET_ ) (* (- 2047) r ) ) 0) (>= (+ (* 1024 1) (* 1 r ) ) 0) (>= (+ (* 1024 1) (* 1 _NONDET_ ) ) 0) (>= (+ (* 1 _NONDET_ i s_2 ) (* 1 _NONDET_ j s_3 ) (* 1 _NONDET_ r s_4 ) (* 1 _NONDET_ s_1 ) (* 1 _NONDET_ _NONDET_ s_5 ) (* 1 i j s_7 ) (* 1 i r s_8 ) (* 1 i s_6 ) (* 1 i i s_9 ) (* 1 j r s_11 ) (* 1 j s_10 ) (* 1 j j s_12 ) (* 1 r s_13 ) (* 1 r r s_14 ) (* 1 s_0 ) ) 0) ) (>= (+ (* 1 _NONDET_ i s_2 ) (* 1 _NONDET_ i s_7 ) (* 1 _NONDET_ i s_8 ) (* (- 2) _NONDET_ i s_9 ) (* 1 _NONDET_ j s_11 ) (* 2 _NONDET_ j s_12 ) (* 1 _NONDET_ j s_3 ) (* (- 1) _NONDET_ j s_7 ) (* 1 _NONDET_ s_1 ) (* 1 _NONDET_ s_10 ) (* 2 _NONDET_ s_11 ) (* 2 _NONDET_ s_12 ) (* 1 _NONDET_ s_13 ) (* 2 _NONDET_ s_14 ) (* 1 _NONDET_ s_3 ) (* 1 _NONDET_ s_4 ) (* (- 1) _NONDET_ s_6 ) (* (- 1) _NONDET_ s_7 ) (* (- 1) _NONDET_ s_8 ) (* 1 _NONDET_ _NONDET_ s_11 ) (* 1 _NONDET_ _NONDET_ s_12 ) (* 1 _NONDET_ _NONDET_ s_14 ) (* (- 1) _NONDET_ _NONDET_ s_2 ) (* 1 _NONDET_ _NONDET_ s_3 ) (* 1 _NONDET_ _NONDET_ s_4 ) (* 1 _NONDET_ _NONDET_ s_5 ) (* (- 1) _NONDET_ _NONDET_ s_7 ) (* (- 1) _NONDET_ _NONDET_ s_8 ) (* 1 _NONDET_ _NONDET_ s_9 ) (* 1 i j s_7 ) (* 1 i s_6 ) (* 1 i s_7 ) (* 1 i s_8 ) (* 1 i i s_9 ) (* 1 j s_10 ) (* 1 j s_11 ) (* 2 j s_12 ) (* 1 j j s_12 ) (* 1 s_0 ) (* 1 s_10 ) (* 1 s_11 ) (* 1 s_12 ) (* 1 s_13 ) (* 1 s_14 ) ) 0) )))
(assert (forall ((r Real) (_NONDET_ Real) (i Real) (j Real) ) (=> (and (>= (+ (* (- 1) 1) (* 1 i ) (* (- 1) j ) ) 0) (>= (+ (* 1023 1) (* (- 1) _NONDET_ ) ) 0) (>= (+ (* 3070 1) (* 1 i ) (* (- 1) j ) (* (- 1) r ) ) 0) (>= (+ (* 2095105 1) (* 1 _NONDET_ ) (* (- 2047) r ) ) 0) (>= (+ (* 1024 1) (* 1 r ) ) 0) (>= (+ (* 1024 1) (* 1 _NONDET_ ) ) 0) (>= (+ (* 1 _NONDET_ i s_2 ) (* 1 _NONDET_ j s_3 ) (* 1 _NONDET_ r s_4 ) (* 1 _NONDET_ s_1 ) (* 1 _NONDET_ _NONDET_ s_5 ) (* 1 i j s_7 ) (* 1 i r s_8 ) (* 1 i s_6 ) (* 1 i i s_9 ) (* 1 j r s_11 ) (* 1 j s_10 ) (* 1 j j s_12 ) (* 1 r s_13 ) (* 1 r r s_14 ) (* 1 s_0 ) ) 0) ) (>= (+ (* 1 _NONDET_ c_1 ) (* 1 _NONDET_ c_10 ) (* 2 _NONDET_ c_11 ) (* 1 _NONDET_ c_11 j ) (* 2 _NONDET_ c_12 ) (* 2 _NONDET_ c_12 j ) (* 1 _NONDET_ c_13 ) (* 2 _NONDET_ c_14 ) (* 1 _NONDET_ c_2 i ) (* 1 _NONDET_ c_3 ) (* 1 _NONDET_ c_3 j ) (* 1 _NONDET_ c_4 ) (* (- 1) _NONDET_ c_6 ) (* (- 1) _NONDET_ c_7 ) (* 1 _NONDET_ c_7 i ) (* (- 1) _NONDET_ c_7 j ) (* (- 1) _NONDET_ c_8 ) (* 1 _NONDET_ c_8 i ) (* (- 2) _NONDET_ c_9 i ) (* 1 _NONDET_ _NONDET_ c_11 ) (* 1 _NONDET_ _NONDET_ c_12 ) (* 1 _NONDET_ _NONDET_ c_14 ) (* (- 1) _NONDET_ _NONDET_ c_2 ) (* 1 _NONDET_ _NONDET_ c_3 ) (* 1 _NONDET_ _NONDET_ c_4 ) (* 1 _NONDET_ _NONDET_ c_5 ) (* (- 1) _NONDET_ _NONDET_ c_7 ) (* (- 1) _NONDET_ _NONDET_ c_8 ) (* 1 _NONDET_ _NONDET_ c_9 ) (* 1 c_0 ) (* 1 c_10 ) (* 1 c_10 j ) (* 1 c_11 ) (* 1 c_11 j ) (* 1 c_12 ) (* 2 c_12 j ) (* 1 c_12 j j ) (* 1 c_13 ) (* 1 c_14 ) (* 1 c_6 i ) (* 1 c_7 i ) (* 1 c_7 i j ) (* 1 c_8 i ) (* 1 c_9 i i ) ) 0) )))
(assert (forall ((r Real) (_NONDET_ Real) (i Real) (j Real) ) (=> (and (>= (+ (* (- 1) 1) (* 1 i ) (* (- 1) j ) ) 0) (>= (+ (* 1023 1) (* (- 1) _NONDET_ ) ) 0) (>= (+ (* 3070 1) (* 1 i ) (* (- 1) j ) (* (- 1) r ) ) 0) (>= (+ (* 2095105 1) (* 1 _NONDET_ ) (* (- 2047) r ) ) 0) (>= (+ (* 1024 1) (* 1 r ) ) 0) (>= (+ (* 1024 1) (* 1 _NONDET_ ) ) 0) (>= (+ (* 1 _NONDET_ i s_2 ) (* 1 _NONDET_ j s_3 ) (* 1 _NONDET_ r s_4 ) (* 1 _NONDET_ s_1 ) (* 1 _NONDET_ _NONDET_ s_5 ) (* 1 i j s_7 ) (* 1 i r s_8 ) (* 1 i s_6 ) (* 1 i i s_9 ) (* 1 j r s_11 ) (* 1 j s_10 ) (* 1 j j s_12 ) (* 1 r s_13 ) (* 1 r r s_14 ) (* 1 s_0 ) ) 0) ) (>= (+ (* (- 1) 1) (* (- 1) _NONDET_ c_10 ) (* (- 2) _NONDET_ c_11 ) (* (- 1) _NONDET_ c_11 j ) (* (- 2) _NONDET_ c_12 ) (* (- 2) _NONDET_ c_12 j ) (* (- 1) _NONDET_ c_13 ) (* (- 2) _NONDET_ c_14 ) (* (- 1) _NONDET_ c_3 ) (* (- 1) _NONDET_ c_4 ) (* 1 _NONDET_ c_4 r ) (* 1 _NONDET_ c_6 ) (* 1 _NONDET_ c_7 ) (* (- 1) _NONDET_ c_7 i ) (* 1 _NONDET_ c_7 j ) (* 1 _NONDET_ c_8 ) (* (- 1) _NONDET_ c_8 i ) (* 2 _NONDET_ c_9 i ) (* (- 1) _NONDET_ _NONDET_ c_11 ) (* (- 1) _NONDET_ _NONDET_ c_12 ) (* (- 1) _NONDET_ _NONDET_ c_14 ) (* 1 _NONDET_ _NONDET_ c_2 ) (* (- 1) _NONDET_ _NONDET_ c_3 ) (* (- 1) _NONDET_ _NONDET_ c_4 ) (* 1 _NONDET_ _NONDET_ c_7 ) (* 1 _NONDET_ _NONDET_ c_8 ) (* (- 1) _NONDET_ _NONDET_ c_9 ) (* (- 1) c_10 ) (* (- 1) c_11 ) (* (- 1) c_11 j ) (* 1 c_11 j r ) (* (- 1) c_12 ) (* (- 2) c_12 j ) (* (- 1) c_13 ) (* 1 c_13 r ) (* (- 1) c_14 ) (* 1 c_14 r r ) (* (- 1) c_7 i ) (* (- 1) c_8 i ) (* 1 c_8 i r ) ) 0) )))
(assert (forall ((r Real) (_NONDET_ Real) (i Real) (j Real) ) (=> (and (>= (+ (* (- 1) i ) (* 1 j ) ) 0) (>= (+ (* 1023 1) (* (- 1) _NONDET_ ) ) 0) (>= (+ (* 3070 1) (* 1 i ) (* (- 1) j ) (* (- 1) r ) ) 0) (>= (+ (* 2095105 1) (* 1 _NONDET_ ) (* (- 2047) r ) ) 0) (>= (+ (* 1024 1) (* 1 r ) ) 0) (>= (+ (* 1024 1) (* 1 _NONDET_ ) ) 0) (>= (+ (* 1 _NONDET_ i s_2 ) (* 1 _NONDET_ j s_3 ) (* 1 _NONDET_ r s_4 ) (* 1 _NONDET_ s_1 ) (* 1 _NONDET_ _NONDET_ s_5 ) (* 1 i j s_7 ) (* 1 i r s_8 ) (* 1 i s_6 ) (* 1 i i s_9 ) (* 1 j r s_11 ) (* 1 j s_10 ) (* 1 j j s_12 ) (* 1 r s_13 ) (* 1 r r s_14 ) (* 1 s_0 ) ) 0) ) (>= (+ (* 1 _NONDET_ i s_17 ) (* 1 _NONDET_ j s_18 ) (* 1 _NONDET_ r s_19 ) (* 1 _NONDET_ s_16 ) (* 1 _NONDET_ _NONDET_ s_20 ) (* 1 i j s_22 ) (* 1 i r s_23 ) (* 1 i s_21 ) (* 1 i i s_24 ) (* 1 j r s_26 ) (* 1 j s_25 ) (* 1 j j s_27 ) (* 1 r s_28 ) (* 1 r r s_29 ) (* 1 s_15 ) ) 0) )))
(assert (forall ((r Real) (_NONDET_ Real) (i Real) (j Real) ) (=> (and (>= (+ (* (- 1) i ) (* 1 j ) ) 0) (>= (+ (* 1023 1) (* (- 1) _NONDET_ ) ) 0) (>= (+ (* 3070 1) (* 1 i ) (* (- 1) j ) (* (- 1) r ) ) 0) (>= (+ (* 2095105 1) (* 1 _NONDET_ ) (* (- 2047) r ) ) 0) (>= (+ (* 1024 1) (* 1 r ) ) 0) (>= (+ (* 1024 1) (* 1 _NONDET_ ) ) 0) (>= (+ (* 1 _NONDET_ i s_2 ) (* 1 _NONDET_ j s_3 ) (* 1 _NONDET_ r s_4 ) (* 1 _NONDET_ s_1 ) (* 1 _NONDET_ _NONDET_ s_5 ) (* 1 i j s_7 ) (* 1 i r s_8 ) (* 1 i s_6 ) (* 1 i i s_9 ) (* 1 j r s_11 ) (* 1 j s_10 ) (* 1 j j s_12 ) (* 1 r s_13 ) (* 1 r r s_14 ) (* 1 s_0 ) ) 0) ) (>= (+ (* 1 _NONDET_ c_16 ) (* 1 _NONDET_ c_17 i ) (* 1 _NONDET_ c_18 j ) (* 1 _NONDET_ c_19 r ) (* 1 _NONDET_ _NONDET_ c_20 ) (* 1 c_15 ) (* 1 c_21 i ) (* 1 c_22 i j ) (* 1 c_23 i r ) (* 1 c_24 i i ) (* 1 c_25 j ) (* 1 c_26 j r ) (* 1 c_27 j j ) (* 1 c_28 r ) (* 1 c_29 r r ) ) 0) )))

(check-sat)
(get-model)
